benchmarks/VRPTW/TSPTW/solution/n60w20.004.txt.solution
1 26 14 9 49 50 57 11 13 34 44 28 59 36 30 12 39 4 10 24 5 31 55 42 51 45 3 35 23 56 22 19 2 7 15 6 43 47 8 16 18 21 48 41 25 20 29 32 40 27 46 53 38 54 33 60 37 17 61 52 58 
616
